1000000100000000001010000         17
0100000000010000000000000         69
0100000000010000000000000         69
0000000000001001000000000        131
0000000000001001000000000        131
0000000000001001000000000        131
0000000000010000000100001        199
0000000000010000000100001        199
0000000000010000000100001        199
0000000000010000000100001        199
0000000000010000000100001        199
0000000000010000000100001        199
0000000000010000000100001        199
0000000000010000000100001        199
0000000000010000000100001        199
0000000000010000000100001        199
0000000000010000000100001        199
0000000000010000000100001        199
0000000000010000000100001        199
0000000000010000000100001        199
0000000000010000000100001        199
0000000000010000000100001        199
0000000000010000000100001        199
0000000000010000000100001        199
0000000000010000000100001        199
0000000000010000000100001        199
0000000000010000000100001        199
0000000000010000000100001        199
0000000000010000000100001        199
0000000000010000000100001        199
0000000000010000000100001        199
0000000000010000000100001        199
0000000000010000000100001        199
0000000000010000000100001        199
0000000000010000000100001        199
0000000000010000000100001        199
0000000000010000000100001        199
0000000000010000000100001        199
0000000000010000000100001        199
0000000000010000000100001        199
0000000000010000000100001        199
0000000000010000000100001        199
0000000000010000000100001        199
0000000000010000000100001        199
0000000000010000000100001        199
0000000000010000000100001        199
0000000000010000000100001        199
0000000000010000000100001        199
0000000000010000000100001        199
0000000000010000000100001        199
0000000000010000000100001        199
0000000000010000000100001        199
0000000000010000000100001        199
0000000000010000000100001        199
0000000000010000000100001        199
0000000000010000000100001        199
0000000000010000000100001        199
0000000000010000000100001        199
0000000000010000000100001        199
0000000000010000000100001        199
0000000000010000000100001        199
0000000000010000000100001        199
0000000000010000000100001        199
0000000000010000000100001        199
0000000000010000000100001        199
0000000000010000000100001        199
0000000000010000000100001        199
0000000000010000000100001        199
0000000000010000000100001        199
0000000000010000000100001        199
0000000000010000000100001        199
0000000000010000000100001        199
0000000000010000000100001        199
0000000000010000000100001        199
0000000000010000000100001        199
0000000000010000000100001        199
0000000000010000000100001        199
0000000000010000000100001        199
0000000000010000000100001        199
0000000000010000000100001        199
0000000000010000000100001        199
0000000000010000000100001        199
0000000000010000000100001        199
0000000000010000000100001        199
0000000000010000000100001        199
0000000000010000000100001        199
0000000000010000000100001        199
0000000000010000000100001        199
0000000000010000000100001        199
0000000000010000000100001        199
0000000000010000000100001        199
0000000000010000000100001        199
0000000000010000000100001        199
0000000000010000000100001        199
0000000000010000000100001        199
0000000000010000000100001        199
0000000000010000000100001        199
0000000000010000000100001        199
0000000000010000000100001        199
0000000000010000000100001        199
0000000000010000000100001        199
0000000000010000000100001        199
0000000000010000000100001        199
0000000000010000000100001        199
0000000000010000000100001        199
0000000000010000000100001        199
0000000000010000000100001        199
0000000000010000000100001        199
0000000000010000000100001        199
0000000000010000000100001        199
0000000000010000000100001        199
0000000000010000000100001        199
0000000000010000000100001        199
0000000000010000000100001        199
0000000000010000000100001        199
0000000000010000000100001        199
0000000000010000000100001        199
0000000000010000000100001        199
0000000000010000000100001        199
0000000000010000000100001        199
0000000000010000000100001        199
0000000000010000000100001        199
0000000000010000000100001        199
0000000000010000000100001        199
0000000000010000000100001        199
0000000000010000000100001        199
0000000000010000000100001        199
0000000000010000000100001        199
0000000000010000000100001        199
0000000000010000000100001        199
0000000000010000000100001        199
0000000000010000000100001        199
0000000000010000000100001        199
0000000000010000000100001        199
0000000000010000000100001        199
0000000000010000000100001        199
0000000000010000000100001        199
0000000000010000000100001        199
0000000000010000000100001        199
0000000000010000000100001        199
0000000000010000000100001        199
0000000000010000000100001        199
0000000000010000000100001        199
0000000000010000000100001        199
0000000000010000000100001        199
0000000000010000000100001        199
0000000000010000000100001        199
0000000000010000000100001        199
0000000000010000000100001        199
0000000000010000000100001        199
0000000000010000000100001        199
0000000000010000000100001        199
0000000000010000000100001        199
0000000000010000000100001        199
0000000000010000000100001        199
0000000000010000000100001        199
0000000000010000000100001        199
0000000000010000000100001        199
0000000000010000000100001        199
0000000000010000000100001        199
0000000000010000000100001        199
0000000000010000000100001        199
0000000000010000000100001        199
0000000000010000000100001        199
0000000000010000000100001        199
0000000000010000000100001        199
0000000000010000000100001        199
0000000000010000000100001        199
0000000000010000000100001        199
0000000000010000000100001        199
0000000000010000000100001        199
0000000000010000000100001        199
0000000000010000000100001        199
0000000000010000000100001        199
0000000000010000000100001        199
0000000000010000000100001        199
0000000000010000000100001        199
0000000000010000000100001        199
0000000000010000000100001        199
0000000000010000000100001        199
0000000000010000000100001        199
0000000000010000000100001        199
0000000000010000000100001        199
0000000000010000000100001        199
0000000000010000000100001        199
0000000000010000000100001        199
0000000000010000000100001        199
0000000000010000000100001        199
0000000000010000000100001        199
0000000000010000000100001        199
0000000000010000000100001        199
0000000000010000000100001        199
0000000000010000000100001        199
0000000000010000000100001        199
0000000000010000000100001        199
0000000000010000000100001        199
0000000000010000000100001        199
0000000000010000000100001        199
0000000000010000000100001        199
0000000000010000000100001        199
0000000000010000000100001        199
0000000000010000000100001        199
0000000000010000000100001        199
0000000000010000000100001        199
0000000000010000000100001        199
0000000000010000000100001        199
0000000000010000000100001        199
0000000000010000000100001        199
0000000000010000000100001        199
0000000000010000000100001        199
0000000000010000000100001        199
0000000000010000000100001        199
0000000000010000000100001        199
0000000000010000000100001        199
0000000000010000000100001        199
0000000000010000000100001        199
0000000000010000000100001        199
0000000000010000000100001        199
0000000000010000000100001        199
0000000000010000000100001        199
0000000000010000000100001        199
0000000000010000000100001        199
0000000000010000000100001        199
0000000000010000000100001        199
0000000000010000000100001        199
0000000000010000000100001        199
0000000000010000000100001        199
0000000000010000000100001        199
0000000000010000000100001        199
0000000000010000000100001        199
0000000000010000000100001        199
0000000000010000000100001        199
0000000000010000000100001        199
0000000000010000000100001        199
0000000000010000000100001        199
0000000000010000000100001        199
0000000000010000000100001        199
0000000000010000000100001        199
0000000000010000000100001        199
0000000000010000000100001        199
0000000000010000000100001        199
0000000000010000000100001        199
0000000000010000000100001        199
0000000000010000000100001        199
0000000000010000000100001        199
0000000000010000000100001        199
0000000000010000000100001        199
0000000000010000000100001        199
0000000000010000000100001        199
0000000000010000000100001        199
0000000000010000000100001        199
0000000000010000000100001        199
0000000000010000000100001        199
0000000000010000000100001        199
0000000000010000000100001        199
0000000000010000000100001        199
0000000000010000000100001        199
0000000000010000000100001        199
0000000000010000000100001        199
0000000000010000000100001        199
0000000000010000000100001        199
0000000000010000000100001        199
0000000000010000000100001        199
0000000000010000000100001        199
0000000000010000000100001        199
0000000000010000000100001        199
0000000000010000000100001        199
0000000000010000000100001        199
0000000000010000000100001        199
0000000000010000000100001        199
0000000000010000000100001        199
0000000000010000000100001        199
0000000000010000000100001        199
0000000000010000000100001        199
0000000000010000000100001        199
0000000000010000000100001        199
0000000000010000000100001        199
0000000000010000000100001        199
0000000000010000000100001        199
0000000000010000000100001        199
0000000000010000000100001        199
0000000000010000000100001        199
0000000000010000000100001        199
0000000000010000000100001        199
0000000000010000000100001        199
0000000000010000000100001        199
0000000000010000000100001        199
0000000000010000000100001        199
0000000000010000000100001        199
0000000000010000000100001        199
0000000000010000000100001        199
0000000000010000000100001        199
0000000000010000000100001        199
0000000000010000000100001        199
0000000000010000000100001        199
0000000000010000000100001        199
0000000000010000000100001        199
0000000000010000000100001        199
0000000000010000000100001        199
0000000000010000000100001        199
0000000000010000000100001        199
0000000000010000000100001        199
0000000000010000000100001        199
0000000000010000000100001        199
0000000000010000000100001        199
0000000000010000000100001        199
0000000000010000000100001        199
0000000000010000000100001        199
0000000000010000000100001        199
0000000000010000000100001        199
0000000000010000000100001        199
0000000000010000000100001        199
0000000000010000000100001        199
0000000000010000000100001        199
0000000000010000000100001        199
0000000000010000000100001        199
0000000000010000000100001        199
0000000000010000000100001        199
0000000000010000000100001        199
0000000000010000000100001        199
0000000000010000000100001        199
0000000000010000000100001        199
0000000000010000000100001        199
0000000000010000000100001        199
0000000000010000000100001        199
0000000000010000000100001        199
0000000000010000000100001        199
0000000000010000000100001        199
0000000000010000000100001        199
0000000000010000000100001        199
0000000000010000000100001        199
0000000000010000000100001        199
0000000000010000000100001        199
0000000000010000000100001        199
0000000000010000000100001        199
0000000000010000000100001        199
0000000000010000000100001        199
0000000000010000000100001        199
0000000000010000000100001        199
0000000000010000000100001        199
0000000000010000000100001        199
0000000000010000000100001        199
0000000000010000000100001        199
0000000000010000000100001        199
0000000000010000000100001        199
0000000000010000000100001        199
0000000000010000000100001        199
0000000000010000000100001        199
0000000000010000000100001        199
0000000000010000000100001        199
0000000000010000000100001        199
0000000000010000000100001        199
0000000000010000000100001        199
0000000000010000000100001        199
0000000000010000000100001        199
0000000000010000000100001        199
0000000000010000000100001        199
0000000000010000000100001        199
0000000000010000000100001        199
0000000000010000000100001        199
0000000000010000000100001        199
0000000000010000000100001        199
0000000000010000000100001        199
0000000000010000000100001        199
0000000000010000000100001        199
0000000000010000000100001        199
0000000000010000000100001        199
0000000000010000000100001        199
0000000000010000000100001        199
0000000000010000000100001        199
0000000000010000000100001        199
0000000000010000000100001        199
0000000000010000000100001        199
0000000000010000000100001        199
0000000000010000000100001        199
0000000000010000000100001        199
0000000000010000000100001        199
0000000000010000000100001        199
0000000000010000000100001        199
0000000000010000000100001        199
0000000000010000000100001        199
0000000000010000000100001        199
0000000000010000000100001        199
0000000000010000000100001        199
0000000000010000000100001        199
0000000000010000000100001        199
0000000000010000000100001        199
0000000000010000000100001        199
0000000000010000000100001        199
0000000000010000000100001        199
0000000000010000000100001        199
0000000000010000000100001        199
0000000000010000000100001        199
0000000000010000000100001        199
0000000000010000000100001        199
0000000000010000000100001        199
0000000000010000000100001        199
0000000000010000000100001        199
0000000000010000000100001        199
0000000000010000000100001        199
0000000000010000000100001        199
0000000000010000000100001        199
0000000000010000000100001        199
0000000000010000000100001        199
0000000000010000000100001        199
0000000000010000000100001        199
0000000000010000000100001        199
0000000000010000000100001        199
0000000000010000000100001        199
0000000000010000000100001        199
0000000000010000000100001        199
0000000000010000000100001        199
0000000000010000000100001        199
0000000000010000000100001        199
0000000000010000000100001        199
0000000000010000000100001        199
0000000000010000000100001        199
0000000000010000000100001        199
0000000000010000000100001        199
0000000000010000000100001        199
0000000000010000000100001        199
0000000000010000000100001        199
0000000000010000000100001        199
0000000000010000000100001        199
0000000000010000000100001        199
0000000000010000000100001        199
0000000000010000000100001        199
0000000000010000000100001        199
0000000000010000000100001        199
0000000000010000000100001        199
0000000000010000000100001        199
0000000000010000000100001        199
0000000000010000000100001        199
0000000000010000000100001        199
0000000000010000000100001        199
0000000000010000000100001        199
0000000000010000000100001        199
0000000000010000000100001        199
0000000000010000000100001        199
0000000000010000000100001        199
0000000000010000000100001        199
0000000000010000000100001        199
0000000000010000000100001        199
0000000000010000000100001        199
0000000000010000000100001        199
0000000000010000000100001        199
0000000000010000000100001        199
0000000000010000000100001        199
0000000000010000000100001        199
0000000000010000000100001        199
0000000000010000000100001        199
0000000000010000000100001        199
0000000000010000000100001        199
0000000000010000000100001        199
0000000000010000000100001        199
0000000000010000000100001        199
0000000000010000000100001        199
0000000000010000000100001        199
0000000000010000000100001        199
0000000000010000000100001        199
0000000000010000000100001        199
0000000000010000000100001        199
0000000000010000000100001        199
0000000000010000000100001        199
0000000000010000000100001        199
0000000000010000000100001        199
0000000000010000000100001        199
0000000000010000000100001        199
0000000000010000000100001        199
0000000000010000000100001        199
0000000000010000000100001        199
0000000000010000000100001        199
0000000000010000000100001        199
0000000000010000000100001        199
0000000000010000000100001        199
0000000000010000000100001        199
0000000000010000000100001        199
0000000000010000000100001        199
0000000000010000000100001        199
0000000000010000000100001        199
0000000000010000000100001        199
0000000000010000000100001        199
0000000000010000000100001        199
0000000000010000000100001        199
0000000000010000000100001        199
0000000000010000000100001        199
0000000000010000000100001        199
0000000000010000000100001        199
0000000000010000000100001        199
0000000000010000000100001        199
0000000000010000000100001        199
0000000000010000000100001        199
0000000000010000000100001        199
0000000000010000000100001        199
0000000000010000000100001        199
0000000000010000000100001        199
0000000000010000000100001        199
0000000000010000000100001        199
0000000000010000000100001        199
0000000000010000000100001        199
0000000000010000000100001        199
0000000000010000000100001        199
0000000000010000000100001        199
0000000000010000000100001        199
0000000000010000000100001        199
0000000000010000000100001        199
0000000000010000000100001        199
0000000000010000000100001        199
0000000000010000000100001        199
0000000000010000000100001        199
0000000000010000000100001        199
0000000000010000000100001        199
0000000000010000000100001        199
0000000000010000000100001        199
0000000000010000000100001        199
0000000000010000000100001        199
0000000000010000000100001        199
0000000000010000000100001        199
0000000000010000000100001        199
0000000000010000000100001        199
0000000000010000000100001        199
0000000000010000000100001        199
0000000000010000000100001        199
0000000000010000000100001        199
0000000000010000000100001        199
0000000000010000000100001        199
0000000000010000000100001        199
0000000000010000000100001        199
0000000000010000000100001        199
0000000000010000000100001        199
0000000000010000000100001        199
0000000000010000000100001        199
0000000000010000000100001        199
0000000000010000000100001        199
0000000000010000000100001        199
0000000000010000000100001        199
0000000000010000000100001        199
0000000000010000000100001        199
0000000000010000000100001        199
0000000000010000000100001        199
0000000000010000000100001        199
0000000000010000000100001        199
0000000000010000000100001        199
0000000000010000000100001        199
0000000000010000000100001        199
0000000000010000000100001        199
0000000000010000000100001        199
0000000000010000000100001        199
0000000000010000000100001        199
0000000000010000000100001        199
0000000000010000000100001        199
0000000000010000000100001        199
0000000000010000000100001        199
0000000000010000000100001        199
0000000000010000000100001        199
0000000000010000000100001        199
0000000000010000000100001        199
0000000000010000000100001        199
0000000000010000000100001        199
0000000000010000000100001        199
0000000000010000000100001        199
0000000000010000000100001        199
0000000000010000000100001        199
0000000000010000000100001        199
0000000000010000000100001        199
0000000000010000000100001        199
0000000000010000000100001        199
0000000000010000000100001        199
0000000000010000000100001        199
0000000000010000000100001        199
0000000000010000000100001        199
0000000000010000000100001        199
0000000000010000000100001        199
0000000000010000000100001        199
0000000000010000000100001        199
0000000000010000000100001        199
0000000000010000000100001        199
0000000000010000000100001        199
0000000000010000000100001        199
0000000000010000000100001        199
0000000000010000000100001        199
0000000000010000000100001        199
0000000000010000000100001        199
0000000000010000000100001        199
0000000000010000000100001        199
0000000000010000000100001        199
0000000000010000000100001        199
0000000000010000000100001        199
0000000000010000000100001        199
0000000000010000000100001        199
0000000000010000000100001        199
0000000000010000000100001        199
0000000000010000000100001        199
0000000000010000000100001        199
0000000000010000000100001        199
0000000000010000000100001        199
0000000000010000000100001        199
0000000000010000000100001        199
0000000000010000000100001        199
0000000000010000000100001        199
0000000000010000000100001        199
0000000000010000000100001        199
0000000000010000000100001        199
0000000000010000000100001        199
0000000000010000000100001        199
0000000000010000000100001        199
0000000000010000000100001        199
0000000000010000000100001        199
0000000000010000000100001        199
0000000000010000000100001        199
0000000000010000000100001        199
0000000000010000000100001        199
0000000000010000000100001        199
0000000000010000000100001        199
0000000000010000000100001        199
0000000000010000000100001        199
0000000000010000000100001        199
0000000000010000000100001        199
0000000000010000000100001        199
0000000000010000000100001        199
0000000000010000000100001        199
0000000000010000000100001        199
0000000000010000000100001        199
0000000000010000000100001        199
0000000000010000000100001        199
0000000000010000000100001        199
0000000000010000000100001        199
0000000000010000000100001        199
0000000000010000000100001        199
0000000000010000000100001        199
0000000000010000000100001        199
0000000000010000000100001        199
0000000000010000000100001        199
0000000000010000000100001        199
0000000000010000000100001        199
0000000000010000000100001        199
0000000000010000000100001        199
0000000000010000000100001        199
0000000000010000000100001        199
0000000000010000000100001        199
0000000000010000000100001        199
0000000000010000000100001        199
0000000000010000000100001        199
0000000000010000000100001        199
0000000000010000000100001        199
0000000000010000000100001        199
0000000000010000000100001        199
0000000000010000000100001        199
0000000000010000000100001        199
0000000000010000000100001        199
0000000000010000000100001        199
0000000000010000000100001        199
0000000000010000000100001        199
0000000000010000000100001        199
0000000000010000000100001        199
0000000000010000000100001        199
0000000000010000000100001        199
0000000000010000000100001        199
0000000000010000000100001        199
0000000000010000000100001        199
0000000000010000000100001        199
0000000000010000000100001        199
0000000000010000000100001        199
0000000000010000000100001        199
0000000000010000000100001        199
0000000000010000000100001        199
0000000000010000000100001        199
0000000000010000000100001        199
0000000000010000000100001        199
0000000000010000000100001        199
0000000000010000000100001        199
0000000000010000000100001        199
0000000000010000000100001        199
0000000000010000000100001        199
0000000000010000000100001        199
0000000000010000000100001        199
0000000000010000000100001        199
0000000000010000000100001        199
0000000000010000000100001        199
0000000000010000000100001        199
0000000000010000000100001        199
0000000000010000000100001        199
0000000000010000000100001        199
0000000000010000000100001        199
0000000000010000000100001        199
0000000000010000000100001        199
0000000000010000000100001        199
0000000000010000000100001        199
0000000000010000000100001        199
0000000000010000000100001        199
0000000000010000000100001        199
0000000000010000000100001        199
0000000000010000000100001        199
0000000000010000000100001        199
0000000000010000000100001        199
0000000000010000000100001        199
0000000000010000000100001        199
0000000000010000000100001        199
0000000000010000000100001        199
0000000000010000000100001        199
0000000000010000000100001        199
0000000000010000000100001        199
0000000000010000000100001        199
0000000000010000000100001        199
0000000000010000000100001        199
0000000000010000000100001        199
0000000000010000000100001        199
0000000000010000000100001        199
0000000000010000000100001        199
0000000000010000000100001        199
0000000000010000000100001        199
0000000000010000000100001        199
0000000000010000000100001        199
0000000000010000000100001        199
0000000000010000000100001        199
0000000000010000000100001        199
0000000000010000000100001        199
0000000000010000000100001        199
0000000000010000000100001        199
0000000000010000000100001        199
0000000000010000000100001        199
0000000000010000000100001        199
0000000000010000000100001        199
0000000000010000000100001        199
0000000000010000000100001        199
0000000000010000000100001        199
0000000000010000000100001        199
0000000000010000000100001        199
0000000000010000000100001        199
0000000000010000000100001        199
0000000000010000000100001        199
0000000000010000000100001        199
0000000000010000000100001        199
0000000000010000000100001        199
0000000000010000000100001        199
0000000000010000000100001        199
0000000000010000000100001        199
0000000000010000000100001        199
0000000000010000000100001        199
0000000000010000000100001        199
0000000000010000000100001        199
0000000000010000000100001        199
0000000000010000000100001        199
0000000000010000000100001        199
0000000000010000000100001        199
0000000000010000000100001        199
0000000000010000000100001        199
0000000000010000000100001        199
0000000000010000000100001        199
0000000000010000000100001        199
0000000000010000000100001        199
0000000000010000000100001        199
0000000000010000000100001        199
0000000000010000000100001        199
0000000000010000000100001        199
0000000000010000000100001        199
0000000000010000000100001        199
0000000000010000000100001        199
0000000000010000000100001        199
0000000000010000000100001        199
0000000000010000000100001        199
0000000000010000000100001        199
0000000000010000000100001        199
0000000000010000000100001        199
0000000000010000000100001        199
0000000000010000000100001        199
0000000000010000000100001        199
0000000000010000000100001        199
0000000000010000000100001        199
0000000000010000000100001        199
0000000000010000000100001        199
0000000000010000000100001        199
0000000000010000000100001        199
0000000000010000000100001        199
0000000000010000000100001        199
0000000000010000000100001        199
0000000000010000000100001        199
0000000000010000000100001        199
0000000000010000000100001        199
0000000000010000000100001        199
0000000000010000000100001        199
0000000000010000000100001        199
0000000000010000000100001        199
0000000000010000000100001        199
0000000000010000000100001        199
0000000000010000000100001        199
0000000000010000000100001        199
0000000000010000000100001        199
0000000000010000000100001        199
0000000000010000000100001        199
0000000000010000000100001        199
0000000000010000000100001        199
0000000000010000000100001        199
0000000000010000000100001        199
0000000000010000000100001        199
0000000000010000000100001        199
0000000000010000000100001        199
0000000000010000000100001        199
0000000000010000000100001        199
0000000000010000000100001        199
0000000000010000000100001        199
0000000000010000000100001        199
0000000000010000000100001        199
0000000000010000000100001        199
0000000000010000000100001        199
0000000000010000000100001        199
0000000000010000000100001        199
0000000000010000000100001        199
0000000000010000000100001        199
0000000000010000000100001        199
0000000000010000000100001        199
0000000000010000000100001        199
0000000000010000000100001        199
0000000000010000000100001        199
0000000000010000000100001        199
0000000000010000000100001        199
0000000000010000000100001        199
0000000000010000000100001        199
0000000000010000000100001        199
0000000000010000000100001        199
0000000000010000000100001        199
0000000000010000000100001        199
0000000000010000000100001        199
0000000000010000000100001        199
0000000000010000000100001        199
0000000000010000000100001        199
0000000000010000000100001        199
0000000000010000000100001        199
0000000000010000000100001        199
0000000000010000000100001        199
0000000000010000000100001        199
0000000000010000000100001        199
0000000000010000000100001        199
0000000000010000000100001        199
0000000000010000000100001        199
0000000000010000000100001        199
0000000000010000000100001        199
0000000000010000000100001        199
0000000000010000000100001        199
0000000000010000000100001        199
0000000000010000000100001        199
0000000000010000000100001        199
0000000000010000000100001        199
0000000000010000000100001        199
0000000000010000000100001        199
0000000000010000000100001        199
0000000000010000000100001        199
0000000000010000000100001        199
0000000000010000000100001        199
0000000000010000000100001        199
0000000000010000000100001        199
0000000000010000000100001        199
0000000000010000000100001        199
0000000000010000000100001        199
0000000000010000000100001        199
0000000000010000000100001        199
0000000000010000000100001        199
0000000000010000000100001        199
0000000000010000000100001        199
0000000000010000000100001        199
0000000000010000000100001        199
0000000000010000000100001        199
0000000000010000000100001        199
0000000000010000000100001        199
0000000000010000000100001        199
0000000000010000000100001        199
0000000000010000000100001        199
0000000000010000000100001        199
0000000000010000000100001        199
0000000000010000000100001        199
0000000000010000000100001        199
0000000000010000000100001        199
0000000000010000000100001        199
0000000000010000000100001        199
0000000000010000000100001        199
0000000000010000000100001        199
0000000000010000000100001        199
0000000000010000000100001        199
0000000000010000000100001        199
0000000000010000000100001        199
0000000000010000000100001        199
0000000000010000000100001        199
0000000000010000000100001        199
0000000000010000000100001        199
0000000000010000000100001        199
0000000000010000000100001        199
0000000000010000000100001        199
0000000000010000000100001        199
0000000000010000000100001        199
0000000000010000000100001        199
0000000000010000000100001        199
0000000000010000000100001        199
0000000000010000000100001        199
0000000000010000000100001        199
0000000000010000000100001        199
0000000000010000000100001        199
0000000000010000000100001        199
0000000000010000000100001        199
0000000000010000000100001        199
0000000000010000000100001        199
0000000000010000000100001        199
0000000000010000000100001        199
0000000000010000000100001        199
0000000000010000000100001        199
0000000000010000000100001        199
0000000000010000000100001        199
0000000000010000000100001        199
0000000000010000000100001        199
0000000000010000000100001        199
0000000000010000000100001        199
0000000000010000000100001        199
0000000000010000000100001        199
0000000000010000000100001        199
0000000000010000000100001        199
0000000000010000000100001        199
0000000000010000000100001        199
0000000000010000000100001        199
0000000000010000000100001        199
0000000000010000000100001        199
0000000000010000000100001        199
0000000000010000000100001        199
0000000000010000000100001        199
0000000000010000000100001        199
0000000000010000000100001        199
0000000000010000000100001        199
0000000000010000000100001        199
0000000000010000000100001        199
0000000000010000000100001        199
0000000000010000000100001        199
0000000000010000000100001        199
0000000000010000000100001        199
0000000000010000000100001        199
0000000000010000000100001        199
0000000000010000000100001        199
0000000000010000000100001        199
0000000000010000000100001        199
0000000000010000000100001        199
0000000000010000000100001        199
0000000000010000000100001        199
0000000000010000000100001        199
0000000000010000000100001        199
0000000000010000000100001        199
0000000000010000000100001        199
0000000000010000000100001        199
0000000000010000000100001        199
0000000000010000000100001        199
0000000000010000000100001        199
0000000000010000000100001        199
0000000000010000000100001        199
0000000000010000000100001        199
0000000000010000000100001        199
0000000000010000000100001        199
0000000000010000000100001        199
0000000000010000000100001        199
0000000000010000000100001        199
0000000000010000000100001        199
0000000000010000000100001        199
0000000000010000000100001        199
0000000000010000000100001        199
0000000000010000000100001        199
0000000000010000000100001        199
0000000000010000000100001        199
0000000000010000000100001        199
0000000000010000000100001        199
0000000000010000000100001        199
0000000000010000000100001        199
0000000000010000000100001        199
0000000000010000000100001        199
0000000000010000000100001        199
0000000000010000000100001        199
0000000000010000000100001        199
0000000000010000000100001        199
0000000000010000000100001        199
0000000000010000000100001        199
0000000000010000000100001        199
0000000000010000000100001        199
0000000000010000000100001        199
0000000000010000000100001        199
0000000000010000000100001        199
0000000000010000000100001        199
0000000000010000000100001        199
0000000000010000000100001        199
0000000000010000000100001        199
0000000000010000000100001        199
0000000000010000000100001        199
0000000000010000000100001        199
0000000000010000000100001        199
0000000000010000000100001        199
0000000000010000000100001        199
0000000000010000000100001        199
0000000000010000000100001        199
0000000000010000000100001        199
0000000000010000000100001        199
0000000000010000000100001        199
0000000000010000000100001        199
0000000000010000000100001        199
0000000000010000000100001        199
0000000000010000000100001        199
0000000000010000000100001        199
0000000000010000000100001        199
